<?xml version = "1.0" standalone="yes"?>
<!-- This file has been generated by DOcplex version 2.23.222  -->
<CPLEXSolution version="1.0">
 <header
   problemName="CVRP"
   objectiveValue="8491.18"
  />
 <variables>
  <variable name="x_0_1" index="0" value="1.00000"/>
  <variable name="x_0_2" index="1" value="1.00000"/>
  <variable name="x_0_4" index="3" value="1.00000"/>
  <variable name="x_0_6" index="5" value="1.00000"/>
  <variable name="x_0_8" index="7" value="1.00000"/>
  <variable name="x_0_9" index="8" value="1.00000"/>
  <variable name="x_0_10" index="9" value="1.00000"/>
  <variable name="x_0_12" index="11" value="1.00000"/>
  <variable name="x_0_13" index="12" value="1.00000"/>
  <variable name="x_0_14" index="13" value="1.00000"/>
  <variable name="x_0_15" index="14" value="1.00000"/>
  <variable name="x_1_0" index="15" value="1.00000"/>
  <variable name="x_2_11" index="40" value="1.00000"/>
  <variable name="x_3_5" index="49" value="1.00000"/>
  <variable name="x_4_0" index="60" value="1.00000"/>
  <variable name="x_5_7" index="81" value="1.00000"/>
  <variable name="x_6_0" index="90" value="1.00000"/>
  <variable name="x_7_0" index="105" value="1.00000"/>
  <variable name="x_8_0" index="120" value="1.00000"/>
  <variable name="x_9_3" index="138" value="1.00000"/>
  <variable name="x_10_0" index="150" value="1.00000"/>
  <variable name="x_11_0" index="165" value="1.00000"/>
  <variable name="x_12_0" index="180" value="1.00000"/>
  <variable name="x_13_0" index="195" value="1.00000"/>
  <variable name="x_14_0" index="210" value="1.00000"/>
  <variable name="x_15_0" index="225" value="1.00000"/>
  <variable name="u_1" index="240" value="44.00000"/>
  <variable name="u_2" index="241" value="26.00000"/>
  <variable name="u_3" index="242" value="26.00000"/>
  <variable name="u_4" index="243" value="32.00000"/>
  <variable name="u_5" index="244" value="28.00000"/>
  <variable name="u_6" index="245" value="44.00000"/>
  <variable name="u_7" index="246" value="43.00000"/>
  <variable name="u_8" index="247" value="38.00000"/>
  <variable name="u_9" index="248" value="12.00000"/>
  <variable name="u_10" index="249" value="38.00000"/>
  <variable name="u_11" index="250" value="43.00000"/>
  <variable name="u_12" index="251" value="44.00000"/>
  <variable name="u_13" index="252" value="33.00000"/>
  <variable name="u_14" index="253" value="28.00000"/>
  <variable name="u_15" index="254" value="34.00000"/>
 </variables>
</CPLEXSolution>
